NAME          
ROWS
 N  OBJ
 L  c1
COLUMNS
    MARKER    'MARKER'                 'INTORG'
    x[1]      c1        104
    x[1]      OBJ       -735
    x[2]      c1        818
    x[2]      OBJ       -810
    x[3]      c1        345
    x[3]      OBJ       -340
    x[4]      c1        534
    x[4]      OBJ       -173
    x[5]      c1        768
    x[5]      OBJ       -870
    x[6]      c1        888
    x[6]      OBJ       -923
    x[7]      c1        381
    x[7]      OBJ       -571
    x[8]      c1        41
    x[8]      OBJ       -183
    x[9]      c1        218
    x[9]      OBJ       -430
    x[10]     c1        970
    x[10]     OBJ       -934
    x[11]     c1        425
    x[11]     OBJ       -39
    x[12]     c1        837
    x[12]     OBJ       -866
    x[13]     c1        9
    x[13]     OBJ       -600
    x[14]     c1        793
    x[14]     OBJ       -170
    x[15]     c1        68
    x[15]     OBJ       -865
    x[16]     c1        806
    x[16]     OBJ       -760
    x[17]     c1        218
    x[17]     OBJ       -345
    x[18]     c1        542
    x[18]     OBJ       -568
    x[19]     c1        533
    x[19]     OBJ       -744
    x[20]     c1        907
    x[20]     OBJ       -458
    x[21]     c1        514
    x[21]     OBJ       -298
    x[22]     c1        807
    x[22]     OBJ       -1
    x[23]     c1        463
    x[23]     OBJ       -237
    x[24]     c1        300
    x[24]     OBJ       -58
    x[25]     c1        991
    x[25]     OBJ       -119
    x[26]     c1        596
    x[26]     OBJ       -803
    x[27]     c1        897
    x[27]     OBJ       -545
    x[28]     c1        139
    x[28]     OBJ       -784
    x[29]     c1        389
    x[29]     OBJ       -164
    x[30]     c1        906
    x[30]     OBJ       -475
RHS
    rhs       c1        8104
RANGES
BOUNDS
 LO bounds    x[1]      0
 PL bounds    x[1]
 LO bounds    x[2]      0
 PL bounds    x[2]
 LO bounds    x[3]      0
 PL bounds    x[3]
 LO bounds    x[4]      0
 PL bounds    x[4]
 LO bounds    x[5]      0
 PL bounds    x[5]
 LO bounds    x[6]      0
 PL bounds    x[6]
 LO bounds    x[7]      0
 PL bounds    x[7]
 LO bounds    x[8]      0
 PL bounds    x[8]
 LO bounds    x[9]      0
 PL bounds    x[9]
 LO bounds    x[10]     0
 PL bounds    x[10]
 LO bounds    x[11]     0
 PL bounds    x[11]
 LO bounds    x[12]     0
 PL bounds    x[12]
 LO bounds    x[13]     0
 PL bounds    x[13]
 LO bounds    x[14]     0
 PL bounds    x[14]
 LO bounds    x[15]     0
 PL bounds    x[15]
 LO bounds    x[16]     0
 PL bounds    x[16]
 LO bounds    x[17]     0
 PL bounds    x[17]
 LO bounds    x[18]     0
 PL bounds    x[18]
 LO bounds    x[19]     0
 PL bounds    x[19]
 LO bounds    x[20]     0
 PL bounds    x[20]
 LO bounds    x[21]     0
 PL bounds    x[21]
 LO bounds    x[22]     0
 PL bounds    x[22]
 LO bounds    x[23]     0
 PL bounds    x[23]
 LO bounds    x[24]     0
 PL bounds    x[24]
 LO bounds    x[25]     0
 PL bounds    x[25]
 LO bounds    x[26]     0
 PL bounds    x[26]
 LO bounds    x[27]     0
 PL bounds    x[27]
 LO bounds    x[28]     0
 PL bounds    x[28]
 LO bounds    x[29]     0
 PL bounds    x[29]
 LO bounds    x[30]     0
 PL bounds    x[30]
ENDATA
